c width = 17, time = 0.211770
s td 10 18 27
b 1 2 3 5 8 9 10 11 12 13 15 16 18 20 21 24 25 26 27
b 2 2 3 5 9 10 11 12 13 14 15 16 18 20 21 24 25 26 27
b 3 1 2 5 9 10 12 13 14 21 24 25
b 4 2 3 5 9 10 11 12 13 15 16 18 20 21 23 24 25 26 27
b 5 2 3 4 5 11 13 16 21 23 25 26
b 6 2 3 5 9 10 11 12 13 15 16 18 20 21 22 24 25 26 27
b 7 3 5 6 12 13 18 20 21 22 24 26
b 8 2 3 5 9 10 11 12 13 15 16 18 19 20 21 24 25 26 27
b 9 2 3 5 7 9 16 18 19 21 24 27
b 10 2 3 8 10 11 13 17 20 21 24 27
2 3
1 2
4 5
1 4
6 7
1 6
8 9
1 8
1 10
